n = 11;
m = 30;
a = [| 8, 20, 24, 9, 11, 3, 25, 9, 24, 20, 1
     | 6, 13, 0, 28, 0, 8, 20, 0, 23, 4, 20
     | 10, 18, 11, 4, 10, 19, 27, 26, 8, 27, 3
     | 8, 21, 4, 20, 20, 10, 22, 8, 3, 14, 7
     | 6, 6, 0, 2, 25, 8, 12, 24, 29, 5, 29
     | 21, 25, 27, 1, 14, 23, 17, 10, 15, 12, 14
     | 28, 19, 19, 14, 29, 2, 26, 14, 16, 5, 0
     | 7, 6, 30, 16, 5, 10, 2, 18, 0, 16, 15
     | 22, 19, 19, 0, 0, 0, 0, 0, 17, 28, 9
     | 25, 0, 28, 12, 0, 18, 9, 0, 0, 0, 0
     | 30, 12, 0, 16, 16, 0, 23, 0, 0, 3, 1|];
s = [ 17, 20, 23, 14, 13, 29, 11, 34, 30, 23, 11, 13, 5, 32, 12, 22, 12, 26, 29, 43, 10, 6, 19, 10, 30, 18, 23, 24, 13, 11];
